c generated by sgen
p cnf 125 260
-2 -3 -4 0
-1 -3 -4 0
-1 -2 -4 0
-1 -2 -3 0
-6 -7 -8 0
-5 -7 -8 0
-5 -6 -8 0
-5 -6 -7 0
-10 -11 -12 0
-9 -11 -12 0
-9 -10 -12 0
-9 -10 -11 0
-14 -15 -16 0
-13 -15 -16 0
-13 -14 -16 0
-13 -14 -15 0
-18 -19 -20 0
-17 -19 -20 0
-17 -18 -20 0
-17 -18 -19 0
-22 -23 -24 0
-21 -23 -24 0
-21 -22 -24 0
-21 -22 -23 0
-26 -27 -28 0
-25 -27 -28 0
-25 -26 -28 0
-25 -26 -27 0
-30 -31 -32 0
-29 -31 -32 0
-29 -30 -32 0
-29 -30 -31 0
-34 -35 -36 0
-33 -35 -36 0
-33 -34 -36 0
-33 -34 -35 0
-38 -39 -40 0
-37 -39 -40 0
-37 -38 -40 0
-37 -38 -39 0
-42 -43 -44 0
-41 -43 -44 0
-41 -42 -44 0
-41 -42 -43 0
-46 -47 -48 0
-45 -47 -48 0
-45 -46 -48 0
-45 -46 -47 0
-50 -51 -52 0
-49 -51 -52 0
-49 -50 -52 0
-49 -50 -51 0
-54 -55 -56 0
-53 -55 -56 0
-53 -54 -56 0
-53 -54 -55 0
-58 -59 -60 0
-57 -59 -60 0
-57 -58 -60 0
-57 -58 -59 0
-62 -63 -64 0
-61 -63 -64 0
-61 -62 -64 0
-61 -62 -63 0
-66 -67 -68 0
-65 -67 -68 0
-65 -66 -68 0
-65 -66 -67 0
-70 -71 -72 0
-69 -71 -72 0
-69 -70 -72 0
-69 -70 -71 0
-74 -75 -76 0
-73 -75 -76 0
-73 -74 -76 0
-73 -74 -75 0
-78 -79 -80 0
-77 -79 -80 0
-77 -78 -80 0
-77 -78 -79 0
-82 -83 -84 0
-81 -83 -84 0
-81 -82 -84 0
-81 -82 -83 0
-86 -87 -88 0
-85 -87 -88 0
-85 -86 -88 0
-85 -86 -87 0
-90 -91 -92 0
-89 -91 -92 0
-89 -90 -92 0
-89 -90 -91 0
-94 -95 -96 0
-93 -95 -96 0
-93 -94 -96 0
-93 -94 -95 0
-98 -99 -100 0
-97 -99 -100 0
-97 -98 -100 0
-97 -98 -99 0
-102 -103 -104 0
-101 -103 -104 0
-101 -102 -104 0
-101 -102 -103 0
-106 -107 -108 0
-105 -107 -108 0
-105 -106 -108 0
-105 -106 -107 0
-110 -111 -112 0
-109 -111 -112 0
-109 -110 -112 0
-109 -110 -111 0
-114 -115 -116 0
-113 -115 -116 0
-113 -114 -116 0
-113 -114 -115 0
-118 -119 -120 0
-117 -119 -120 0
-117 -118 -120 0
-117 -118 -119 0
-121 -122 -123 0
-121 -122 -124 0
-121 -122 -125 0
-121 -123 -124 0
-121 -123 -125 0
-121 -124 -125 0
-122 -123 -124 0
-122 -123 -125 0
-122 -124 -125 0
-123 -124 -125 0
88 54 3 0
60 54 3 0
60 88 3 0
60 88 54 0
22 26 75 0
7 26 75 0
7 22 75 0
7 22 26 0
106 101 67 0
45 101 67 0
45 106 67 0
45 106 101 0
65 115 36 0
17 115 36 0
17 65 36 0
17 65 115 0
107 58 43 0
23 58 43 0
23 107 43 0
23 107 58 0
80 53 103 0
72 53 103 0
72 80 103 0
72 80 53 0
86 108 12 0
76 108 12 0
76 86 12 0
76 86 108 0
91 73 123 0
37 73 123 0
37 91 123 0
37 91 73 0
42 96 33 0
40 96 33 0
40 42 33 0
40 42 96 0
78 21 122 0
13 21 122 0
13 78 122 0
13 78 21 0
120 9 51 0
66 9 51 0
66 120 51 0
66 120 9 0
90 27 69 0
117 27 69 0
117 90 69 0
117 90 27 0
56 61 39 0
24 61 39 0
24 56 39 0
24 56 61 0
93 82 68 0
32 82 68 0
32 93 68 0
32 93 82 0
47 4 110 0
25 4 110 0
25 47 110 0
25 47 4 0
41 112 16 0
10 112 16 0
10 41 16 0
10 41 112 0
38 46 31 0
52 46 31 0
52 38 31 0
52 38 46 0
70 6 105 0
84 6 105 0
84 70 105 0
84 70 6 0
28 95 85 0
124 95 85 0
124 28 85 0
124 28 95 0
20 102 5 0
14 102 5 0
14 20 5 0
14 20 102 0
8 121 98 0
55 121 98 0
55 8 98 0
55 8 121 0
100 48 18 0
2 48 18 0
2 100 18 0
2 100 48 0
34 92 50 0
125 92 50 0
125 34 50 0
125 34 92 0
30 1 89 0
104 1 89 0
104 30 89 0
104 30 1 0
116 99 94 0
15 99 94 0
15 116 94 0
15 116 99 0
19 59 11 0
79 59 11 0
79 19 11 0
79 19 59 0
35 119 77 0
63 119 77 0
63 35 77 0
63 35 119 0
118 114 109 0
29 114 109 0
29 118 109 0
29 118 114 0
113 83 57 0
49 83 57 0
49 113 57 0
49 113 83 0
62 74 111 0
81 74 111 0
81 62 111 0
81 62 74 0
87 64 44 0
87 64 71 0
87 64 97 0
87 44 71 0
87 44 97 0
87 71 97 0
64 44 71 0
64 44 97 0
64 71 97 0
44 71 97 0
